NAME : XML100_2232_26
DIMENSION : 101
NB_CLUSTERS : 5
CLUSTERING_ALG : KMeans
CLUSTERING_PARAMS : k(4)
CLUSTERS
1 0
2 4 5 6 10 13 16 19 20 21 24 25 26 27 28 29 30 31 32 35 38 39 42 43 44 46 50 54 55 60 61 63 65 66 69 71 72 73 78 79 80 81 82 84 87 88 91 99
3 2 8 18 23 36 37 48 52 67 68 70 76 85 86 93 100
4 1 3 9 11 14 15 33 34 45 58 64 74 77 83 94 95 97 98
5 7 12 17 22 40 41 47 49 51 53 56 57 59 62 75 89 90 92 96
EOF